GRAPH IS : 
0 0 0 0 0 0 0 0 0 0 0 0 0 0 0 0 0 0 0 0 0 0 0 0 0 0 0 0 0 0 0 0 0 0 0 0 0 0 0 0 0 0 0 0 0 0 0 0 0 0 0 0 0 0 0 0 0 0 0 0 0 0 0 0 0 0 0 0 0 0 0 0 0 0 
0 0 0 0 1 1 0 0 0 1 1 1 0 1 0 0 0 0 0 0 0 0 1 0 0 1 0 0 0 1 0 0 0 0 0 0 0 0 0 0 1 0 0 0 1 0 0 0 0 1 1 0 0 0 0 1 0 0 0 1 0 0 0 1 0 0 0 0 0 1 0 0 1 0 
0 0 0 0 1 0 0 0 0 0 0 0 0 0 0 0 0 0 0 0 0 0 0 0 0 0 0 0 0 0 0 0 0 0 0 0 0 0 0 0 0 1 0 1 0 0 1 0 0 0 0 1 0 0 0 1 0 1 0 0 0 0 1 0 0 0 0 0 0 0 0 0 0 0 
0 0 0 0 0 0 0 0 0 1 0 0 0 0 0 0 0 0 0 0 0 0 0 0 0 0 0 0 0 0 0 0 0 0 0 0 0 0 0 0 0 0 0 0 0 0 0 0 0 0 0 0 1 1 0 1 0 0 0 0 0 0 0 0 0 0 0 0 0 0 0 0 0 0 
0 1 1 0 0 0 0 0 0 1 0 0 1 0 0 0 0 0 0 1 0 0 1 0 0 0 0 1 0 0 0 0 1 0 0 0 0 0 0 0 0 1 0 1 0 1 1 1 0 1 0 0 0 0 0 1 1 1 0 0 1 0 1 1 0 0 0 1 1 1 0 1 0 1 
0 1 0 0 0 0 0 0 0 0 0 1 0 1 0 0 0 0 0 0 0 0 0 0 0 1 0 0 0 1 0 0 0 0 0 0 0 0 0 0 1 0 0 0 0 0 0 0 0 1 1 0 0 0 0 1 0 0 0 1 0 0 0 0 0 0 0 0 0 0 0 0 0 0 
0 0 0 0 0 0 0 0 0 0 0 0 0 0 0 0 0 1 0 0 1 1 0 1 0 0 0 0 0 0 0 0 0 0 1 0 0 0 0 1 0 0 0 0 0 0 0 0 0 0 0 0 0 0 0 1 0 0 0 0 0 0 0 0 1 0 0 0 0 0 0 0 0 0 
0 0 0 0 0 0 0 0 0 0 0 0 0 0 0 0 0 0 0 0 0 0 0 0 0 0 0 0 0 0 0 0 0 0 0 0 0 0 0 0 0 0 0 0 0 0 0 0 0 0 0 0 0 0 0 0 0 0 0 0 0 0 0 0 0 0 0 0 0 0 1 0 0 0 
0 0 0 0 0 0 0 0 0 1 0 0 0 0 1 0 0 0 1 0 0 0 0 0 0 0 0 0 0 0 0 1 0 0 0 0 0 0 1 0 0 0 0 0 1 0 0 0 0 0 0 0 1 0 0 0 0 0 0 0 0 0 0 0 0 0 0 0 0 0 0 0 0 0 
0 1 0 1 1 0 0 0 1 0 1 0 0 0 1 0 0 0 1 0 0 0 1 0 0 0 0 0 0 0 0 1 0 0 0 0 0 0 1 0 0 0 0 0 1 0 0 0 0 1 0 0 1 1 0 1 0 0 0 0 0 0 0 0 0 0 1 0 0 1 0 0 1 0 
0 1 0 0 0 0 0 0 0 1 0 0 0 0 0 0 0 0 0 0 0 0 0 0 0 0 0 0 0 0 0 0 0 0 0 0 0 0 0 0 0 0 0 0 0 0 0 0 0 1 0 0 0 0 0 1 0 0 0 0 0 0 0 0 0 0 0 0 0 0 0 0 1 0 
0 1 0 0 0 1 0 0 0 0 0 0 0 1 0 0 0 0 0 0 0 0 0 0 0 1 0 0 0 1 0 0 0 0 0 0 0 0 0 0 1 0 0 0 0 0 0 0 0 1 1 0 0 0 0 1 0 0 0 1 0 0 0 0 0 0 0 0 0 0 0 0 0 0 
0 0 0 0 1 0 0 0 0 0 0 0 0 0 0 0 0 0 0 0 0 0 0 0 0 0 0 0 0 0 0 0 0 0 0 0 0 0 0 0 0 1 0 1 0 0 0 1 0 0 0 0 0 0 0 1 0 1 0 0 0 0 1 0 0 0 0 1 0 0 0 0 0 1 
0 1 0 0 0 1 0 0 0 0 0 1 0 0 0 0 0 0 0 0 0 0 0 0 0 1 0 0 0 1 0 0 0 0 0 0 0 0 0 0 1 0 0 0 0 0 0 0 0 1 1 0 0 0 0 1 0 0 0 1 0 0 0 0 0 0 0 0 0 0 0 0 0 0 
0 0 0 0 0 0 0 0 1 1 0 0 0 0 0 0 0 0 1 0 0 0 0 0 0 0 0 0 0 0 0 1 0 0 0 0 0 0 1 0 0 0 0 0 1 0 0 0 0 0 0 0 1 0 0 0 0 0 0 0 0 0 0 0 0 0 0 0 0 0 0 0 0 0 
0 0 0 0 0 0 0 0 0 0 0 0 0 0 0 0 0 0 0 0 0 0 1 0 0 0 0 0 0 0 0 0 0 0 0 0 0 0 0 0 0 0 0 0 0 0 0 0 0 0 0 0 0 0 0 1 0 0 0 0 0 0 0 0 0 0 0 0 0 0 0 0 0 0 
0 0 0 0 0 0 0 0 0 0 0 0 0 0 0 0 0 0 0 0 0 0 0 0 0 0 0 0 0 0 0 0 0 0 0 0 0 0 0 0 0 0 0 0 0 0 0 0 0 0 0 0 0 0 0 1 0 0 0 0 0 0 0 0 0 1 0 0 0 0 0 0 0 0 
0 0 0 0 0 0 1 0 0 0 0 0 0 0 0 0 0 0 0 0 1 1 0 1 0 0 0 0 1 0 1 0 0 0 1 0 0 0 0 1 0 0 0 0 0 0 0 0 0 0 0 0 0 0 0 1 0 0 0 0 0 0 0 0 1 0 0 0 0 0 0 0 0 0 
0 0 0 0 0 0 0 0 1 1 0 0 0 0 1 0 0 0 0 0 0 0 1 0 1 0 0 0 0 0 0 1 0 0 0 0 0 0 1 0 0 0 0 0 1 0 0 0 0 0 0 0 1 0 0 1 0 0 0 0 0 0 0 0 0 0 0 0 0 0 0 0 0 0 
0 0 0 0 1 0 0 0 0 0 0 0 0 0 0 0 0 0 0 0 0 0 0 0 0 0 0 1 0 0 0 0 0 0 0 0 0 0 0 0 0 1 0 0 0 0 0 0 0 0 0 0 0 0 0 1 1 1 0 0 1 0 0 0 0 0 0 0 1 0 0 0 0 1 
0 0 0 0 0 0 1 0 0 0 0 0 0 0 0 0 0 1 0 0 0 1 0 1 0 0 0 0 0 0 0 0 0 0 1 0 0 0 0 1 0 0 0 0 0 0 0 0 0 0 0 0 0 0 0 1 0 0 0 0 0 0 0 0 1 0 0 0 0 0 0 0 0 0 
0 0 0 0 0 0 1 0 0 0 0 0 0 0 0 0 0 1 0 0 1 0 0 1 0 0 0 0 0 0 0 0 0 0 1 0 0 0 0 1 0 0 0 0 0 0 0 0 0 0 0 0 0 0 0 1 0 0 0 0 0 0 0 0 1 0 0 0 0 0 0 0 0 0 
0 1 0 0 1 0 0 0 0 1 0 0 0 0 0 1 0 0 1 0 0 0 0 0 0 0 1 0 0 0 0 0 0 0 0 0 0 0 0 0 0 1 1 0 1 0 0 0 0 1 0 0 0 0 0 1 0 1 0 0 0 1 0 1 0 0 1 0 0 1 0 0 0 0 
0 0 0 0 0 0 1 0 0 0 0 0 0 0 0 0 0 1 0 0 1 1 0 0 0 0 0 0 0 0 1 0 0 0 1 0 0 0 0 1 0 0 0 0 0 0 0 0 0 0 0 0 0 0 0 1 0 0 0 0 0 0 0 0 1 0 0 0 0 0 0 0 0 0 
0 0 0 0 0 0 0 0 0 0 0 0 0 0 0 0 0 0 1 0 0 0 0 0 0 0 0 0 0 0 0 1 0 0 0 0 0 0 0 0 0 0 1 0 0 0 0 0 0 0 0 0 0 0 0 1 0 0 0 0 0 0 0 0 0 0 0 0 0 0 0 0 0 0 
0 1 0 0 0 1 0 0 0 0 0 1 0 1 0 0 0 0 0 0 0 0 0 0 0 0 0 0 0 1 0 0 0 0 0 0 0 0 0 0 1 0 0 0 0 0 0 0 0 1 1 0 0 0 0 1 0 0 0 1 0 0 0 0 0 0 0 0 0 0 0 0 0 0 
0 0 0 0 0 0 0 0 0 0 0 0 0 0 0 0 0 0 0 0 0 0 1 0 0 0 0 0 0 0 0 0 0 0 0 0 0 0 0 0 0 0 0 0 0 0 0 0 0 0 0 0 0 0 0 0 0 0 0 0 0 0 0 0 0 0 0 0 0 0 0 0 0 0 
0 0 0 0 1 0 0 0 0 0 0 0 0 0 0 0 0 0 0 1 0 0 0 0 0 0 0 0 0 0 0 0 0 0 0 0 0 0 0 0 0 1 0 0 0 0 0 0 0 0 0 0 0 0 0 1 1 1 0 0 1 0 1 0 0 0 0 0 1 0 0 0 0 1 
0 0 0 0 0 0 0 0 0 0 0 0 0 0 0 0 0 1 0 0 0 0 0 0 0 0 0 0 0 0 0 0 0 0 0 0 0 0 0 0 0 0 0 0 0 0 0 0 0 0 0 0 0 0 0 0 0 0 0 0 0 0 0 0 0 0 0 0 0 0 0 0 0 0 
0 1 0 0 0 1 0 0 0 0 0 1 0 1 0 0 0 0 0 0 0 0 0 0 0 1 0 0 0 0 0 0 0 0 0 0 0 0 0 0 1 0 0 0 0 0 0 0 0 1 1 0 0 0 0 1 0 0 0 1 0 0 0 0 0 0 0 0 0 0 0 0 0 0 
0 0 0 0 0 0 0 0 0 0 0 0 0 0 0 0 0 1 0 0 0 0 0 1 0 0 0 0 0 0 0 0 0 0 0 0 0 0 0 0 0 0 0 0 0 0 0 0 0 0 0 0 0 0 0 1 0 0 0 0 0 0 0 0 0 0 0 0 0 0 0 0 0 0 
0 0 0 0 0 0 0 0 1 1 0 0 0 0 1 0 0 0 1 0 0 0 0 0 1 0 0 0 0 0 0 0 0 0 0 0 0 0 1 0 0 0 0 0 1 0 0 0 0 0 0 0 1 0 0 1 0 0 0 0 0 0 0 0 0 0 0 0 0 0 0 0 0 0 
0 0 0 0 1 0 0 0 0 0 0 0 0 0 0 0 0 0 0 0 0 0 0 0 0 0 0 0 0 0 0 0 0 0 0 0 0 0 0 0 0 0 0 0 0 0 0 0 0 0 0 0 0 0 0 0 0 0 0 0 0 0 0 0 0 0 0 0 0 0 0 1 0 0 
0 0 0 0 0 0 0 0 0 0 0 0 0 0 0 0 0 0 0 0 0 0 0 0 0 0 0 0 0 0 0 0 0 0 0 0 0 0 0 0 0 0 0 0 0 0 0 0 0 1 0 0 0 0 0 0 0 0 0 0 0 0 0 0 0 0 0 0 0 0 0 0 0 0 
0 0 0 0 0 0 1 0 0 0 0 0 0 0 0 0 0 1 0 0 1 1 0 1 0 0 0 0 0 0 0 0 0 0 0 0 0 0 0 1 0 0 0 0 0 0 0 0 0 0 0 0 0 0 0 1 0 0 0 0 0 0 0 0 1 0 0 0 0 0 0 0 0 0 
0 0 0 0 0 0 0 0 0 0 0 0 0 0 0 0 0 0 0 0 0 0 0 0 0 0 0 0 0 0 0 0 0 0 0 0 0 0 0 0 0 0 0 0 0 0 0 0 1 0 0 0 0 0 0 0 0 0 1 0 0 0 0 0 0 0 0 0 0 0 0 0 0 0 
0 0 0 0 0 0 0 0 0 0 0 0 0 0 0 0 0 0 0 0 0 0 0 0 0 0 0 0 0 0 0 0 0 0 0 0 0 0 0 0 0 1 0 0 0 0 0 0 0 0 0 0 0 0 0 1 0 1 0 0 1 0 0 0 0 0 0 0 0 0 0 0 0 0 
0 0 0 0 0 0 0 0 0 0 0 0 0 0 0 0 0 0 0 0 0 0 0 0 0 0 0 0 0 0 0 0 0 0 0 0 0 0 0 0 0 0 0 0 0 0 0 0 0 1 0 0 0 0 0 0 0 0 0 0 0 0 0 0 0 0 0 0 0 0 0 0 1 0 
0 0 0 0 0 0 0 0 1 1 0 0 0 0 1 0 0 0 1 0 0 0 0 0 0 0 0 0 0 0 0 1 0 0 0 0 0 0 0 0 0 0 0 0 1 0 0 0 0 0 0 0 1 0 0 0 0 0 0 0 0 0 0 0 0 0 0 0 0 0 0 0 0 0 
0 0 0 0 0 0 1 0 0 0 0 0 0 0 0 0 0 1 0 0 1 1 0 1 0 0 0 0 0 0 0 0 0 0 1 0 0 0 0 0 0 0 0 0 0 0 0 0 0 0 0 0 0 0 0 1 0 0 0 0 0 0 0 0 1 0 0 0 0 0 0 0 0 0 
0 1 0 0 0 1 0 0 0 0 0 1 0 1 0 0 0 0 0 0 0 0 0 0 0 1 0 0 0 1 0 0 0 0 0 0 0 0 0 0 0 0 0 0 0 0 0 0 0 1 1 0 0 0 0 1 0 0 0 1 0 0 0 0 0 0 0 0 0 0 0 0 0 0 
0 0 1 0 1 0 0 0 0 0 0 0 1 0 0 0 0 0 0 1 0 0 1 0 0 0 0 1 0 0 0 0 0 0 0 0 1 0 0 0 0 0 0 1 0 0 1 1 0 0 0 1 0 0 0 1 1 1 0 0 1 0 1 0 0 0 0 1 1 0 0 0 0 1 
0 0 0 0 0 0 0 0 0 0 0 0 0 0 0 0 0 0 0 0 0 0 1 0 1 0 0 0 0 0 0 0 0 0 0 0 0 0 0 0 0 0 0 0 0 0 0 0 0 0 0 0 0 0 0 1 0 0 0 0 0 0 0 0 0 0 0 0 0 0 0 0 0 0 
0 0 1 0 1 0 0 0 0 0 0 0 1 0 0 0 0 0 0 0 0 0 0 0 0 0 0 0 0 0 0 0 0 0 0 0 0 0 0 0 0 1 0 0 0 0 0 1 0 0 0 1 0 0 0 0 0 1 0 0 0 0 0 0 0 0 0 1 0 0 0 0 0 1 
0 1 0 0 0 0 0 0 1 1 0 0 0 0 1 0 0 0 1 0 0 0 1 0 0 0 0 0 0 0 0 1 0 0 0 0 0 0 1 0 0 0 0 0 0 0 0 0 0 1 0 0 1 0 0 1 0 0 0 0 0 0 0 0 0 0 0 0 0 0 0 0 0 0 
0 0 0 0 1 0 0 0 0 0 0 0 0 0 0 0 0 0 0 0 0 0 0 0 0 0 0 0 0 0 0 0 0 0 0 0 0 0 0 0 0 0 0 0 0 0 0 0 0 0 0 0 0 0 0 0 0 0 0 0 0 0 0 0 0 0 0 0 0 0 0 1 0 0 
0 0 1 0 1 0 0 0 0 0 0 0 0 0 0 0 0 0 0 0 0 0 0 0 0 0 0 0 0 0 0 0 0 0 0 0 0 0 0 0 0 1 0 0 0 0 0 0 0 0 0 0 0 0 0 1 0 1 0 0 0 0 1 0 0 0 0 0 0 0 0 0 0 0 
0 0 0 0 1 0 0 0 0 0 0 0 1 0 0 0 0 0 0 0 0 0 0 0 0 0 0 0 0 0 0 0 0 0 0 0 0 0 0 0 0 1 0 1 0 0 0 0 0 0 0 0 0 0 0 1 0 1 0 0 0 0 1 0 0 0 0 1 0 0 0 0 0 1 
0 0 0 0 0 0 0 0 0 0 0 0 0 0 0 0 0 0 0 0 0 0 0 0 0 0 0 0 0 0 0 0 0 0 0 1 0 0 0 0 0 0 0 0 0 0 0 0 0 0 0 0 0 0 0 0 0 0 1 0 0 0 0 0 0 0 0 0 0 0 0 0 0 0 
0 1 0 0 1 1 0 0 0 1 1 1 0 1 0 0 0 0 0 0 0 0 1 0 0 1 0 0 0 1 0 0 0 1 0 0 0 1 0 0 1 0 0 0 1 0 0 0 0 0 1 0 0 0 0 1 0 0 0 1 0 0 0 0 0 0 0 0 0 1 0 0 1 0 
0 1 0 0 0 1 0 0 0 0 0 1 0 1 0 0 0 0 0 0 0 0 0 0 0 1 0 0 0 1 0 0 0 0 0 0 0 0 0 0 1 0 0 0 0 0 0 0 0 1 0 0 0 0 0 1 0 0 0 1 0 0 0 0 0 0 0 0 0 0 0 0 0 0 
0 0 1 0 0 0 0 0 0 0 0 0 0 0 0 0 0 0 0 0 0 0 0 0 0 0 0 0 0 0 0 0 0 0 0 0 0 0 0 0 0 1 0 1 0 0 0 0 0 0 0 0 0 0 0 0 0 1 0 0 0 0 0 0 0 0 0 0 0 0 0 0 0 0 
0 0 0 1 0 0 0 0 1 1 0 0 0 0 1 0 0 0 1 0 0 0 0 0 0 0 0 0 0 0 0 1 0 0 0 0 0 0 1 0 0 0 0 0 1 0 0 0 0 0 0 0 0 1 0 1 0 0 0 0 0 0 0 0 0 0 0 0 0 0 0 0 0 0 
0 0 0 1 0 0 0 0 0 1 0 0 0 0 0 0 0 0 0 0 0 0 0 0 0 0 0 0 0 0 0 0 0 0 0 0 0 0 0 0 0 0 0 0 0 0 0 0 0 0 0 0 1 0 0 1 0 0 0 0 0 0 0 0 0 0 0 0 0 0 0 0 0 0 
0 0 0 0 0 0 0 0 0 0 0 0 0 0 0 0 0 0 0 0 0 0 0 0 0 0 0 0 0 0 0 0 0 0 0 0 0 0 0 0 0 0 0 0 0 0 0 0 0 0 0 0 0 0 0 1 0 0 0 0 0 0 0 0 0 0 0 0 0 0 0 0 0 0 
0 1 1 1 1 1 1 0 0 1 1 1 1 1 0 1 1 1 1 1 1 1 1 1 1 1 0 1 0 1 1 1 0 0 1 0 1 0 0 1 1 1 1 0 1 0 1 1 0 1 1 0 1 1 1 0 1 1 0 1 1 0 1 0 1 1 1 1 1 1 0 0 1 1 
0 0 0 0 1 0 0 0 0 0 0 0 0 0 0 0 0 0 0 1 0 0 0 0 0 0 0 1 0 0 0 0 0 0 0 0 0 0 0 0 0 1 0 0 0 0 0 0 0 0 0 0 0 0 0 1 0 1 0 0 1 0 0 0 0 0 0 0 1 0 0 0 0 1 
0 0 1 0 1 0 0 0 0 0 0 0 1 0 0 0 0 0 0 1 0 0 1 0 0 0 0 1 0 0 0 0 0 0 0 0 1 0 0 0 0 1 0 1 0 0 1 1 0 0 0 1 0 0 0 1 1 0 0 0 1 0 1 0 0 0 0 1 1 0 0 0 0 1 
0 0 0 0 0 0 0 0 0 0 0 0 0 0 0 0 0 0 0 0 0 0 0 0 0 0 0 0 0 0 0 0 0 0 0 1 0 0 0 0 0 0 0 0 0 0 0 0 1 0 0 0 0 0 0 0 0 0 0 0 0 0 0 0 0 0 0 0 0 0 0 0 0 0 
0 1 0 0 0 1 0 0 0 0 0 1 0 1 0 0 0 0 0 0 0 0 0 0 0 1 0 0 0 1 0 0 0 0 0 0 0 0 0 0 1 0 0 0 0 0 0 0 0 1 1 0 0 0 0 1 0 0 0 0 0 0 0 0 0 0 0 0 0 0 0 0 0 0 
0 0 0 0 1 0 0 0 0 0 0 0 0 0 0 0 0 0 0 1 0 0 0 0 0 0 0 1 0 0 0 0 0 0 0 0 1 0 0 0 0 1 0 0 0 0 0 0 0 0 0 0 0 0 0 1 1 1 0 0 0 0 0 0 0 0 0 0 1 0 0 0 0 1 
0 0 0 0 0 0 0 0 0 0 0 0 0 0 0 0 0 0 0 0 0 0 1 0 0 0 0 0 0 0 0 0 0 0 0 0 0 0 0 0 0 0 0 0 0 0 0 0 0 0 0 0 0 0 0 0 0 0 0 0 0 0 0 0 0 0 0 0 0 0 0 0 0 0 
0 0 1 0 1 0 0 0 0 0 0 0 1 0 0 0 0 0 0 0 0 0 0 0 0 0 0 1 0 0 0 0 0 0 0 0 0 0 0 0 0 1 0 0 0 0 1 1 0 0 0 0 0 0 0 1 0 1 0 0 0 0 0 0 0 0 0 1 0 0 0 0 0 0 
0 1 0 0 1 0 0 0 0 0 0 0 0 0 0 0 0 0 0 0 0 0 1 0 0 0 0 0 0 0 0 0 0 0 0 0 0 0 0 0 0 0 0 0 0 0 0 0 0 0 0 0 0 0 0 0 0 0 0 0 0 0 0 0 0 0 0 0 0 0 0 0 0 0 
0 0 0 0 0 0 1 0 0 0 0 0 0 0 0 0 0 1 0 0 1 1 0 1 0 0 0 0 0 0 0 0 0 0 1 0 0 0 0 1 0 0 0 0 0 0 0 0 0 0 0 0 0 0 0 1 0 0 0 0 0 0 0 0 0 0 0 0 0 0 0 0 0 0 
0 0 0 0 0 0 0 0 0 0 0 0 0 0 0 0 1 0 0 0 0 0 0 0 0 0 0 0 0 0 0 0 0 0 0 0 0 0 0 0 0 0 0 0 0 0 0 0 0 0 0 0 0 0 0 1 0 0 0 0 0 0 0 0 0 0 0 0 0 0 0 0 0 0 
0 0 0 0 0 0 0 0 0 1 0 0 0 0 0 0 0 0 0 0 0 0 1 0 0 0 0 0 0 0 0 0 0 0 0 0 0 0 0 0 0 0 0 0 0 0 0 0 0 0 0 0 0 0 0 1 0 0 0 0 0 0 0 0 0 0 0 0 0 0 0 0 0 0 
0 0 0 0 1 0 0 0 0 0 0 0 1 0 0 0 0 0 0 0 0 0 0 0 0 0 0 0 0 0 0 0 0 0 0 0 0 0 0 0 0 1 0 1 0 0 0 1 0 0 0 0 0 0 0 1 0 1 0 0 0 0 1 0 0 0 0 0 0 0 0 0 0 1 
0 0 0 0 1 0 0 0 0 0 0 0 0 0 0 0 0 0 0 1 0 0 0 0 0 0 0 1 0 0 0 0 0 0 0 0 0 0 0 0 0 1 0 0 0 0 0 0 0 0 0 0 0 0 0 1 1 1 0 0 1 0 0 0 0 0 0 0 0 0 0 0 0 1 
0 1 0 0 1 0 0 0 0 1 0 0 0 0 0 0 0 0 0 0 0 0 1 0 0 0 0 0 0 0 0 0 0 0 0 0 0 0 0 0 0 0 0 0 0 0 0 0 0 1 0 0 0 0 0 1 0 0 0 0 0 0 0 0 0 0 0 0 0 0 0 0 0 0 
0 0 0 0 0 0 0 1 0 0 0 0 0 0 0 0 0 0 0 0 0 0 0 0 0 0 0 0 0 0 0 0 0 0 0 0 0 0 0 0 0 0 0 0 0 0 0 0 0 0 0 0 0 0 0 0 0 0 0 0 0 0 0 0 0 0 0 0 0 0 0 0 0 0 
0 0 0 0 1 0 0 0 0 0 0 0 0 0 0 0 0 0 0 0 0 0 0 0 0 0 0 0 0 0 0 0 1 0 0 0 0 0 0 0 0 0 0 0 0 1 0 0 0 0 0 0 0 0 0 0 0 0 0 0 0 0 0 0 0 0 0 0 0 0 0 0 0 0 
0 1 0 0 0 0 0 0 0 1 1 0 0 0 0 0 0 0 0 0 0 0 0 0 0 0 0 0 0 0 0 0 0 0 0 0 0 1 0 0 0 0 0 0 0 0 0 0 0 1 0 0 0 0 0 1 0 0 0 0 0 0 0 0 0 0 0 0 0 0 0 0 0 0 
0 0 0 0 1 0 0 0 0 0 0 0 1 0 0 0 0 0 0 1 0 0 0 0 0 0 0 1 0 0 0 0 0 0 0 0 0 0 0 0 0 1 0 1 0 0 0 1 0 0 0 0 0 0 0 1 1 1 0 0 1 0 0 0 0 0 0 1 1 0 0 0 0 0 




----------------------------

EPOCH: 0 MAX:  -42.567567568    AVG:  -46.020270270
EPOCH: 1 MAX:  -39.864864865    AVG:  -44.043918919
EPOCH: 2 MAX:  -39.864864865    AVG:  -43.195945946
EPOCH: 3 MAX:  -39.864864865    AVG:  -42.665540541
EPOCH: 4 MAX:  -39.864864865    AVG:  -42.206081081
EPOCH: 5 MAX:  -39.189189189    AVG:  -41.800675676
EPOCH: 6 MAX:  -37.837837838    AVG:  -41.266891892
EPOCH: 7 MAX:  -37.837837838    AVG:  -40.753378378
EPOCH: 8 MAX:  -37.837837838    AVG:  -40.364864865
EPOCH: 9 MAX:  -37.162162162    AVG:  -39.810810811
EPOCH: 10 MAX:  -36.486486486    AVG:  -39.148648649
EPOCH: 11 MAX:  -36.486486486    AVG:  -38.543918919
EPOCH: 12 MAX:  -36.486486486    AVG:  -38.054054054
EPOCH: 13 MAX:  -36.486486486    AVG:  -37.689189189
EPOCH: 14 MAX:  -36.486486486    AVG:  -37.530405405
EPOCH: 15 MAX:  -35.810810811    AVG:  -37.185810811
EPOCH: 16 MAX:  -35.810810811    AVG:  -36.871621622
EPOCH: 17 MAX:  -34.459459459    AVG:  -36.425675676
EPOCH: 18 MAX:  -34.459459459    AVG:  -36.179054054
EPOCH: 19 MAX:  -34.459459459    AVG:  -35.760135135
EPOCH: 20 MAX:  -33.783783784    AVG:  -35.358108108
EPOCH: 21 MAX:  -33.783783784    AVG:  -34.969594595
EPOCH: 22 MAX:  -33.108108108    AVG:  -34.726351351
EPOCH: 23 MAX:  -33.108108108    AVG:  -34.304054054
EPOCH: 24 MAX:  -33.108108108    AVG:  -34.010135135
EPOCH: 25 MAX:  -32.432432432    AVG:  -33.547297297
EPOCH: 26 MAX:  -32.432432432    AVG:  -33.101351351
EPOCH: 27 MAX:  -32.432432432    AVG:  -32.604729730
EPOCH: 28 MAX:  -32.432432432    AVG:  -32.432432432
EPOCH: 29 MAX:  -31.756756757    AVG:  -32.425675676
EPOCH: 30 MAX:  -31.756756757    AVG:  -32.425675676
EPOCH: 31 MAX:  -31.756756757    AVG:  -32.418918919
EPOCH: 32 MAX:  -31.756756757    AVG:  -32.395270270
EPOCH: 33 MAX:  -31.756756757    AVG:  -32.337837838
EPOCH: 34 MAX:  -31.756756757    AVG:  -32.219594595
EPOCH: 35 MAX:  -31.756756757    AVG:  -31.888513514
EPOCH: 36 MAX:  -31.756756757    AVG:  -31.756756757
EPOCH: 37 MAX:  -31.756756757    AVG:  -31.756756757
EPOCH: 38 MAX:  -31.756756757    AVG:  -31.756756757
EPOCH: 39 MAX:  -31.756756757    AVG:  -31.756756757
EPOCH: 40 MAX:  -31.756756757    AVG:  -31.756756757
EPOCH: 41 MAX:  -31.756756757    AVG:  -31.756756757
EPOCH: 42 MAX:  -31.756756757    AVG:  -31.756756757
EPOCH: 43 MAX:  -31.756756757    AVG:  -31.756756757
EPOCH: 44 MAX:  -31.756756757    AVG:  -31.756756757
EPOCH: 45 MAX:  -31.756756757    AVG:  -31.756756757
EPOCH: 46 MAX:  -31.756756757    AVG:  -31.756756757
EPOCH: 47 MAX:  -31.756756757    AVG:  -31.756756757
EPOCH: 48 MAX:  -31.756756757    AVG:  -31.756756757
EPOCH: 49 MAX:  -31.756756757    AVG:  -31.756756757
EPOCH: 50 MAX:  -31.756756757    AVG:  -31.756756757
EPOCH: 51 MAX:  -31.756756757    AVG:  -31.756756757
EPOCH: 52 MAX:  -31.756756757    AVG:  -31.756756757
EPOCH: 53 MAX:  -31.756756757    AVG:  -31.756756757
EPOCH: 54 MAX:  -31.756756757    AVG:  -31.756756757
EPOCH: 55 MAX:  -31.756756757    AVG:  -31.756756757
EPOCH: 56 MAX:  -31.756756757    AVG:  -31.756756757
EPOCH: 57 MAX:  -31.756756757    AVG:  -31.756756757
EPOCH: 58 MAX:  -31.756756757    AVG:  -31.756756757
EPOCH: 59 MAX:  -31.756756757    AVG:  -31.756756757
EPOCH: 60 MAX:  -31.756756757    AVG:  -31.756756757
EPOCH: 61 MAX:  -31.756756757    AVG:  -31.756756757
EPOCH: 62 MAX:  -31.756756757    AVG:  -31.756756757
EPOCH: 63 MAX:  -31.756756757    AVG:  -31.756756757
EPOCH: 64 MAX:  -31.756756757    AVG:  -31.756756757
EPOCH: 65 MAX:  -31.756756757    AVG:  -31.756756757
EPOCH: 66 MAX:  -31.756756757    AVG:  -31.756756757
EPOCH: 67 MAX:  -31.756756757    AVG:  -31.756756757
EPOCH: 68 MAX:  -31.756756757    AVG:  -31.756756757
EPOCH: 69 MAX:  -31.756756757    AVG:  -31.756756757
EPOCH: 70 MAX:  -31.756756757    AVG:  -31.756756757
EPOCH: 71 MAX:  -31.756756757    AVG:  -31.756756757
EPOCH: 72 MAX:  -31.756756757    AVG:  -31.756756757
EPOCH: 73 MAX:  -31.756756757    AVG:  -31.756756757
EPOCH: 74 MAX:  -31.756756757    AVG:  -31.756756757
EPOCH: 75 MAX:  -31.756756757    AVG:  -31.756756757
EPOCH: 76 MAX:  -31.756756757    AVG:  -31.756756757
EPOCH: 77 MAX:  -31.756756757    AVG:  -31.756756757
EPOCH: 78 MAX:  -31.756756757    AVG:  -31.756756757
EPOCH: 79 MAX:  -31.756756757    AVG:  -31.756756757
EPOCH: 80 MAX:  -31.756756757    AVG:  -31.756756757
EPOCH: 81 MAX:  -31.756756757    AVG:  -31.756756757
EPOCH: 82 MAX:  -31.756756757    AVG:  -31.756756757
EPOCH: 83 MAX:  -31.756756757    AVG:  -31.756756757
EPOCH: 84 MAX:  -31.756756757    AVG:  -31.756756757
EPOCH: 85 MAX:  -31.756756757    AVG:  -31.756756757
EPOCH: 86 MAX:  -31.756756757    AVG:  -31.756756757
EPOCH: 87 MAX:  -31.756756757    AVG:  -31.756756757
EPOCH: 88 MAX:  -31.756756757    AVG:  -31.756756757
EPOCH: 89 MAX:  -31.756756757    AVG:  -31.756756757
EPOCH: 90 MAX:  -31.756756757    AVG:  -31.756756757
EPOCH: 91 MAX:  -31.756756757    AVG:  -31.756756757
EPOCH: 92 MAX:  -31.756756757    AVG:  -31.756756757
EPOCH: 93 MAX:  -31.756756757    AVG:  -31.756756757
EPOCH: 94 MAX:  -31.756756757    AVG:  -31.756756757
EPOCH: 95 MAX:  -31.756756757    AVG:  -31.756756757
EPOCH: 96 MAX:  -31.756756757    AVG:  -31.756756757
EPOCH: 97 MAX:  -31.756756757    AVG:  -31.756756757
EPOCH: 98 MAX:  -31.756756757    AVG:  -31.756756757
EPOCH: 99 MAX:  -31.756756757    AVG:  -31.756756757
EPOCH: 100 MAX:  -31.756756757    AVG:  -31.756756757
EPOCH: 101 MAX:  -31.756756757    AVG:  -31.756756757
EPOCH: 102 MAX:  -31.756756757    AVG:  -31.756756757
EPOCH: 103 MAX:  -31.756756757    AVG:  -31.756756757
EPOCH: 104 MAX:  -31.756756757    AVG:  -31.756756757
EPOCH: 105 MAX:  -31.756756757    AVG:  -31.756756757
HELPER:  ....
EPOCH: 106 MAX:  -6.756756757    AVG:  -31.631756757
EPOCH: 107 MAX:  -6.756756757    AVG:  -31.564189189
EPOCH: 108 MAX:  -6.756756757    AVG:  -31.202702703
EPOCH: 109 MAX:  -6.756756757    AVG:  -30.530405405
EPOCH: 110 MAX:  -6.756756757    AVG:  -28.179054054
EPOCH: 111 MAX:  -6.756756757    AVG:  -22.878378378
EPOCH: 112 MAX:  -6.756756757    AVG:  -15.793918919
EPOCH: 113 MAX:  -6.756756757    AVG:  -10.479729730
EPOCH: 114 MAX:  -6.756756757    AVG:  -7.854729730
EPOCH: 115 MAX:  -6.756756757    AVG:  -7.202702703
EPOCH: 116 MAX:  -6.756756757    AVG:  -6.756756757
EPOCH: 117 MAX:  -6.756756757    AVG:  -6.756756757
EPOCH: 118 MAX:  -6.756756757    AVG:  -6.756756757
EPOCH: 119 MAX:  -6.756756757    AVG:  -6.756756757
EPOCH: 120 MAX:  -6.756756757    AVG:  -6.756756757
EPOCH: 121 MAX:  -6.756756757    AVG:  -6.756756757
EPOCH: 122 MAX:  -6.756756757    AVG:  -6.756756757
EPOCH: 123 MAX:  -6.756756757    AVG:  -6.756756757
EPOCH: 124 MAX:  -6.756756757    AVG:  -6.756756757
EPOCH: 125 MAX:  -6.756756757    AVG:  -6.756756757
EPOCH: 126 MAX:  -6.756756757    AVG:  -6.756756757
EPOCH: 127 MAX:  -6.756756757    AVG:  -6.756756757
EPOCH: 128 MAX:  -6.756756757    AVG:  -6.756756757
EPOCH: 129 MAX:  -6.756756757    AVG:  -6.756756757
EPOCH: 130 MAX:  -6.756756757    AVG:  -6.756756757
EPOCH: 131 MAX:  -6.756756757    AVG:  -6.756756757
EPOCH: 132 MAX:  -6.756756757    AVG:  -6.756756757
EPOCH: 133 MAX:  -6.756756757    AVG:  -6.756756757
EPOCH: 134 MAX:  -6.756756757    AVG:  -6.756756757
EPOCH: 135 MAX:  -6.756756757    AVG:  -6.756756757
EPOCH: 136 MAX:  -6.756756757    AVG:  -6.756756757
EPOCH: 137 MAX:  -6.756756757    AVG:  -6.756756757
EPOCH: 138 MAX:  -6.756756757    AVG:  -6.756756757
EPOCH: 139 MAX:  -6.756756757    AVG:  -6.756756757
EPOCH: 140 MAX:  -6.756756757    AVG:  -6.756756757
EPOCH: 141 MAX:  -6.756756757    AVG:  -6.756756757
EPOCH: 142 MAX:  -6.756756757    AVG:  -6.756756757
EPOCH: 143 MAX:  -6.756756757    AVG:  -6.756756757
EPOCH: 144 MAX:  -6.756756757    AVG:  -6.756756757
EPOCH: 145 MAX:  -6.756756757    AVG:  -6.756756757
EPOCH: 146 MAX:  -6.756756757    AVG:  -6.756756757
EPOCH: 147 MAX:  -6.756756757    AVG:  -6.756756757
EPOCH: 148 MAX:  -6.756756757    AVG:  -6.756756757
EPOCH: 149 MAX:  -6.756756757    AVG:  -6.756756757
EPOCH: 150 MAX:  -6.756756757    AVG:  -6.756756757
EPOCH: 151 MAX:  -6.756756757    AVG:  -6.756756757
EPOCH: 152 MAX:  -6.756756757    AVG:  -6.756756757
EPOCH: 153 MAX:  -6.756756757    AVG:  -6.756756757
EPOCH: 154 MAX:  -6.756756757    AVG:  -6.756756757
EPOCH: 155 MAX:  -6.756756757    AVG:  -6.756756757
EPOCH: 156 MAX:  -6.756756757    AVG:  -6.756756757
EPOCH: 157 MAX:  -6.756756757    AVG:  -6.756756757
EPOCH: 158 MAX:  -6.756756757    AVG:  -6.756756757
EPOCH: 159 MAX:  -6.756756757    AVG:  -6.756756757
EPOCH: 160 MAX:  -6.756756757    AVG:  -6.756756757
EPOCH: 161 MAX:  -6.756756757    AVG:  -6.756756757
EPOCH: 162 MAX:  -6.756756757    AVG:  -6.756756757
EPOCH: 163 MAX:  -6.756756757    AVG:  -6.756756757
EPOCH: 164 MAX:  -6.756756757    AVG:  -6.756756757
EPOCH: 165 MAX:  -6.756756757    AVG:  -6.756756757
EPOCH: 166 MAX:  -6.756756757    AVG:  -6.756756757
EPOCH: 167 MAX:  -6.756756757    AVG:  -6.756756757
EPOCH: 168 MAX:  -6.756756757    AVG:  -6.756756757
EPOCH: 169 MAX:  -6.756756757    AVG:  -6.756756757
EPOCH: 170 MAX:  -6.756756757    AVG:  -6.756756757
EPOCH: 171 MAX:  -6.756756757    AVG:  -6.756756757
EPOCH: 172 MAX:  -6.756756757    AVG:  -6.756756757
EPOCH: 173 MAX:  -6.756756757    AVG:  -6.756756757
EPOCH: 174 MAX:  -6.756756757    AVG:  -6.756756757
EPOCH: 175 MAX:  -6.756756757    AVG:  -6.756756757
EPOCH: 176 MAX:  -6.756756757    AVG:  -6.756756757
EPOCH: 177 MAX:  -6.756756757    AVG:  -6.756756757
EPOCH: 178 MAX:  -6.756756757    AVG:  -6.756756757
EPOCH: 179 MAX:  -6.756756757    AVG:  -6.756756757
EPOCH: 180 MAX:  -6.756756757    AVG:  -6.756756757
EPOCH: 181 MAX:  -6.756756757    AVG:  -6.756756757
EPOCH: 182 MAX:  -6.756756757    AVG:  -6.756756757
EPOCH: 183 MAX:  -6.756756757    AVG:  -6.756756757
EPOCH: 184 MAX:  -6.756756757    AVG:  -6.756756757
EPOCH: 185 MAX:  -6.756756757    AVG:  -6.756756757
EPOCH: 186 MAX:  -6.756756757    AVG:  -6.756756757
HELPER:  ....
EPOCH: 187 MAX:  -6.756756757    AVG:  -6.756756757
EPOCH: 188 MAX:  -6.756756757    AVG:  -6.756756757
EPOCH: 189 MAX:  -6.756756757    AVG:  -6.756756757
EPOCH: 190 MAX:  -6.756756757    AVG:  -6.756756757
EPOCH: 191 MAX:  -6.756756757    AVG:  -6.756756757
EPOCH: 192 MAX:  -6.756756757    AVG:  -6.756756757
EPOCH: 193 MAX:  -6.756756757    AVG:  -6.756756757
EPOCH: 194 MAX:  -6.756756757    AVG:  -6.756756757
EPOCH: 195 MAX:  -6.756756757    AVG:  -6.756756757
EPOCH: 196 MAX:  -6.756756757    AVG:  -6.756756757
EPOCH: 197 MAX:  -6.756756757    AVG:  -6.756756757
EPOCH: 198 MAX:  -6.756756757    AVG:  -6.756756757
EPOCH: 199 MAX:  -6.756756757    AVG:  -6.756756757
EPOCH: 200 MAX:  -6.756756757    AVG:  -6.756756757
EPOCH: 201 MAX:  -6.756756757    AVG:  -6.756756757
EPOCH: 202 MAX:  -6.756756757    AVG:  -6.756756757
EPOCH: 203 MAX:  -6.756756757    AVG:  -6.756756757
EPOCH: 204 MAX:  -6.756756757    AVG:  -6.756756757
EPOCH: 205 MAX:  -6.756756757    AVG:  -6.756756757
EPOCH: 206 MAX:  -6.756756757    AVG:  -6.756756757
EPOCH: 207 MAX:  -6.756756757    AVG:  -6.756756757
EPOCH: 208 MAX:  -6.756756757    AVG:  -6.756756757
EPOCH: 209 MAX:  -6.756756757    AVG:  -6.756756757
EPOCH: 210 MAX:  -6.756756757    AVG:  -6.756756757
EPOCH: 211 MAX:  -6.756756757    AVG:  -6.756756757
EPOCH: 212 MAX:  -6.756756757    AVG:  -6.756756757
EPOCH: 213 MAX:  -6.756756757    AVG:  -6.756756757
EPOCH: 214 MAX:  -6.756756757    AVG:  -6.756756757
EPOCH: 215 MAX:  -6.756756757    AVG:  -6.756756757
EPOCH: 216 MAX:  -6.756756757    AVG:  -6.756756757
EPOCH: 217 MAX:  -6.756756757    AVG:  -6.756756757
EPOCH: 218 MAX:  -6.756756757    AVG:  -6.756756757
EPOCH: 219 MAX:  -6.756756757    AVG:  -6.756756757
EPOCH: 220 MAX:  -6.756756757    AVG:  -6.756756757
EPOCH: 221 MAX:  -6.756756757    AVG:  -6.756756757
EPOCH: 222 MAX:  -6.756756757    AVG:  -6.756756757
EPOCH: 223 MAX:  -6.756756757    AVG:  -6.756756757
EPOCH: 224 MAX:  -6.756756757    AVG:  -6.756756757
EPOCH: 225 MAX:  -6.756756757    AVG:  -6.756756757
EPOCH: 226 MAX:  -6.756756757    AVG:  -6.756756757
EPOCH: 227 MAX:  -6.756756757    AVG:  -6.756756757
EPOCH: 228 MAX:  -6.756756757    AVG:  -6.756756757
EPOCH: 229 MAX:  -6.756756757    AVG:  -6.756756757
EPOCH: 230 MAX:  -6.756756757    AVG:  -6.756756757
EPOCH: 231 MAX:  -6.756756757    AVG:  -6.756756757
EPOCH: 232 MAX:  -6.756756757    AVG:  -6.756756757
EPOCH: 233 MAX:  -6.756756757    AVG:  -6.756756757
EPOCH: 234 MAX:  -6.756756757    AVG:  -6.756756757
EPOCH: 235 MAX:  -6.756756757    AVG:  -6.756756757
EPOCH: 236 MAX:  -6.756756757    AVG:  -6.756756757
EPOCH: 237 MAX:  -6.756756757    AVG:  -6.756756757
EPOCH: 238 MAX:  -6.756756757    AVG:  -6.756756757
EPOCH: 239 MAX:  -6.756756757    AVG:  -6.756756757
EPOCH: 240 MAX:  -6.756756757    AVG:  -6.756756757
EPOCH: 241 MAX:  -6.756756757    AVG:  -6.756756757
EPOCH: 242 MAX:  -6.756756757    AVG:  -6.756756757
EPOCH: 243 MAX:  -6.756756757    AVG:  -6.756756757
EPOCH: 244 MAX:  -6.756756757    AVG:  -6.756756757
EPOCH: 245 MAX:  -6.756756757    AVG:  -6.756756757
EPOCH: 246 MAX:  -6.756756757    AVG:  -6.756756757
EPOCH: 247 MAX:  -6.756756757    AVG:  -6.756756757
EPOCH: 248 MAX:  -6.756756757    AVG:  -6.756756757
EPOCH: 249 MAX:  -6.756756757    AVG:  -6.756756757
EPOCH: 250 MAX:  -6.756756757    AVG:  -6.756756757
EPOCH: 251 MAX:  -6.756756757    AVG:  -6.756756757
EPOCH: 252 MAX:  -6.756756757    AVG:  -6.756756757
EPOCH: 253 MAX:  -6.756756757    AVG:  -6.756756757
EPOCH: 254 MAX:  -6.756756757    AVG:  -6.756756757
EPOCH: 255 MAX:  -6.756756757    AVG:  -6.756756757
EPOCH: 256 MAX:  -6.756756757    AVG:  -6.756756757
HELPER:  ....
---------------------------
CH: 0 369.000000000
CH: 1 369.000000000
CH: 2 369.000000000
CH: 3 369.000000000
CH: 4 361.000000000
CH: 5 361.000000000
CH: 6 369.000000000
CH: 7 369.000000000
CH: 8 369.000000000
CH: 9 343.000000000
CH: 10 361.000000000
CH: 11 343.000000000
CH: 12 369.000000000
CH: 13 324.000000000
CH: 14 361.000000000
CH: 15 369.000000000
CH: 16 369.000000000
CH: 17 343.000000000
CH: 18 311.000000000
CH: 19 343.000000000
CH: 20 324.000000000
CH: 21 311.000000000
CH: 22 324.000000000
CH: 23 298.000000000
CH: 24 369.000000000
CH: 25 311.000000000
CH: 26 369.000000000
CH: 27 369.000000000
CH: 28 369.000000000
CH: 29 298.000000000
CH: 30 369.000000000
CH: 31 298.000000000
CH: 32 369.000000000
CH: 33 369.000000000
CH: 34 287.000000000
CH: 35 369.000000000
CH: 36 369.000000000
CH: 37 369.000000000
CH: 38 287.000000000
CH: 39 252.000000000
CH: 40 287.000000000
CH: 41 311.000000000
CH: 42 361.000000000
CH: 43 343.000000000
CH: 44 252.000000000
CH: 45 369.000000000
CH: 46 343.000000000
CH: 47 298.000000000
CH: 48 361.000000000
CH: 49 230.000000000
CH: 50 252.000000000
CH: 51 361.000000000
CH: 52 324.000000000
CH: 53 361.000000000
CH: 54 369.000000000
CH: 55 179.000000000
CH: 56 324.000000000
CH: 57 287.000000000
CH: 58 343.000000000
CH: 59 191.000000000
CH: 60 298.000000000
CH: 61 369.000000000
CH: 62 252.000000000
CH: 63 343.000000000
CH: 64 361.000000000
CH: 65 361.000000000
CH: 66 369.000000000
CH: 67 324.000000000
CH: 68 252.000000000
CH: 69 311.000000000
CH: 70 361.000000000
CH: 71 343.000000000
CH: 72 324.000000000
CH: 73 230.000000000





END ------------------------
ERROR: 0.000000000
NUM OF COLORS USED = 11
